c generated by sgen
p cnf 109 228
-2 -3 -4 0
-1 -3 -4 0
-1 -2 -4 0
-1 -2 -3 0
-6 -7 -8 0
-5 -7 -8 0
-5 -6 -8 0
-5 -6 -7 0
-10 -11 -12 0
-9 -11 -12 0
-9 -10 -12 0
-9 -10 -11 0
-14 -15 -16 0
-13 -15 -16 0
-13 -14 -16 0
-13 -14 -15 0
-18 -19 -20 0
-17 -19 -20 0
-17 -18 -20 0
-17 -18 -19 0
-22 -23 -24 0
-21 -23 -24 0
-21 -22 -24 0
-21 -22 -23 0
-26 -27 -28 0
-25 -27 -28 0
-25 -26 -28 0
-25 -26 -27 0
-30 -31 -32 0
-29 -31 -32 0
-29 -30 -32 0
-29 -30 -31 0
-34 -35 -36 0
-33 -35 -36 0
-33 -34 -36 0
-33 -34 -35 0
-38 -39 -40 0
-37 -39 -40 0
-37 -38 -40 0
-37 -38 -39 0
-42 -43 -44 0
-41 -43 -44 0
-41 -42 -44 0
-41 -42 -43 0
-46 -47 -48 0
-45 -47 -48 0
-45 -46 -48 0
-45 -46 -47 0
-50 -51 -52 0
-49 -51 -52 0
-49 -50 -52 0
-49 -50 -51 0
-54 -55 -56 0
-53 -55 -56 0
-53 -54 -56 0
-53 -54 -55 0
-58 -59 -60 0
-57 -59 -60 0
-57 -58 -60 0
-57 -58 -59 0
-62 -63 -64 0
-61 -63 -64 0
-61 -62 -64 0
-61 -62 -63 0
-66 -67 -68 0
-65 -67 -68 0
-65 -66 -68 0
-65 -66 -67 0
-70 -71 -72 0
-69 -71 -72 0
-69 -70 -72 0
-69 -70 -71 0
-74 -75 -76 0
-73 -75 -76 0
-73 -74 -76 0
-73 -74 -75 0
-78 -79 -80 0
-77 -79 -80 0
-77 -78 -80 0
-77 -78 -79 0
-82 -83 -84 0
-81 -83 -84 0
-81 -82 -84 0
-81 -82 -83 0
-86 -87 -88 0
-85 -87 -88 0
-85 -86 -88 0
-85 -86 -87 0
-90 -91 -92 0
-89 -91 -92 0
-89 -90 -92 0
-89 -90 -91 0
-94 -95 -96 0
-93 -95 -96 0
-93 -94 -96 0
-93 -94 -95 0
-98 -99 -100 0
-97 -99 -100 0
-97 -98 -100 0
-97 -98 -99 0
-102 -103 -104 0
-101 -103 -104 0
-101 -102 -104 0
-101 -102 -103 0
-105 -106 -107 0
-105 -106 -108 0
-105 -106 -109 0
-105 -107 -108 0
-105 -107 -109 0
-105 -108 -109 0
-106 -107 -108 0
-106 -107 -109 0
-106 -108 -109 0
-107 -108 -109 0
60 82 18 0
65 82 18 0
65 60 18 0
65 60 82 0
102 88 57 0
50 88 57 0
50 102 57 0
50 102 88 0
55 92 78 0
72 92 78 0
72 55 78 0
72 55 92 0
59 54 21 0
37 54 21 0
37 59 21 0
37 59 54 0
61 38 108 0
74 38 108 0
74 61 108 0
74 61 38 0
105 87 4 0
26 87 4 0
26 105 4 0
26 105 87 0
2 41 5 0
16 41 5 0
16 2 5 0
16 2 41 0
58 93 28 0
32 93 28 0
32 58 28 0
32 58 93 0
104 84 10 0
98 84 10 0
98 104 10 0
98 104 84 0
81 43 94 0
34 43 94 0
34 81 94 0
34 81 43 0
80 47 40 0
3 47 40 0
3 80 40 0
3 80 47 0
15 73 56 0
103 73 56 0
103 15 56 0
103 15 73 0
1 17 52 0
31 17 52 0
31 1 52 0
31 1 17 0
100 67 90 0
106 67 90 0
106 100 90 0
106 100 67 0
30 35 70 0
107 35 70 0
107 30 70 0
107 30 35 0
71 85 97 0
39 85 97 0
39 71 97 0
39 71 85 0
89 76 11 0
27 76 11 0
27 89 11 0
27 89 76 0
86 75 45 0
66 75 45 0
66 86 45 0
66 86 75 0
49 77 36 0
8 77 36 0
8 49 36 0
8 49 77 0
69 14 20 0
12 14 20 0
12 69 20 0
12 69 14 0
68 96 9 0
53 96 9 0
53 68 9 0
53 68 96 0
63 33 13 0
22 33 13 0
22 63 13 0
22 63 33 0
7 95 48 0
109 95 48 0
109 7 48 0
109 7 95 0
42 79 51 0
64 79 51 0
64 42 51 0
64 42 79 0
29 62 83 0
46 62 83 0
46 29 83 0
46 29 62 0
91 101 44 0
24 101 44 0
24 91 44 0
24 91 101 0
25 23 19 0
25 23 99 0
25 23 6 0
25 19 99 0
25 19 6 0
25 99 6 0
23 19 99 0
23 19 6 0
23 99 6 0
19 99 6 0
